z1,z2,z3,nondominated
7,9,6,0
9,5,1,0
9,7,9,0
4,10,7,0
3,2,6,0
5,3,4,0
6,9,1,0
10,4,6,0
10,5,9,0
7,2,4,0
5,9,3,0
3,3,9,0
7,7,5,0
2,2,10,0
6,4,3,0
5,9,4,0
8,7,3,0
9,9,10,0
8,8,7,0
5,10,7,0
1,9,4,0
7,7,6,0
7,4,8,0
2,7,3,0
2,10,5,0
10,9,1,0
7,6,1,0
7,5,4,0
3,2,4,0
5,9,9,0
7,2,3,0
1,1,10,0
3,1,2,0
2,3,10,0
6,4,3,0
8,10,9,0
1,1,1,0
1,1,1,0
1,1,1,0
1,1,1,0
1,1,1,0
1,1,1,0
